units metal
atom_style atomic
timestep 0.002
dimension 3
boundary p p p

read_data ${file}

group U type 1
group Xe type 2

delete_atoms group Xe

variable LLX equal (xhi-xlo)
variable LLY equal (yhi-ylo)
variable LLZ equal (zhi-zlo)

print "Lx=${LLX}, Ly=${LLY}, Lz=${LLZ}"

pair_style eam/alloy
pair_coeff * * U_Mo_Xe.2013.eam.alloy U Xe

neighbor 1.0 bin
neigh_modify every 1 delay 0 check yes

thermo_style custom step temp press pxx pyy pzz lx ly lz
thermo_modify flush yes
thermo 100

velocity all create ${T} ${SEED} mom yes dist gaussian loop all
print "The simulation temperature is set to ${T}"
print "The random seed for initial Gaussian velocity distribution is ${SEED}"

fix npt all npt temp ${T} ${T} 0.2 aniso 0.0 0.0 0.2 drag 0.20

run 10000 # equilibration phase

reset_timestep 0
dump 1 all custom 10000 *.dump id type x y z

compute msd all msd com yes
compute msdU U msd com yes
#compute msdXe Xe msd com yes

fix 1 all ave/time 100 1 100 c_msd[*] file MSD_all.dat
fix 2 all ave/time 100 1 100 c_msdU[*] file MSD_U.dat
#fix 3 all ave/time 100 1 100 c_msdXe[*] file MSD_Xe.dat

run ${timesteps}
